NAME           C:\Bruker\Hvattum\knapsack\Problems\class4\100-10-19.mps
ROWS
 N  OBJ
 L  CONSTR1
 L  CONSTR2
 L  CONSTR3
 L  CONSTR4
 L  CONSTR5
 L  CONSTR6
 L  CONSTR7
 L  CONSTR8
 L  CONSTR9
 L  CONSTR10
COLUMNS
    INT0001   'MARKER'  'INTORG'
    X1        OBJ       1018
    X1        CONSTR1   731
    X1        CONSTR2   1000
    X1        CONSTR3   503
    X1        CONSTR4   533
    X1        CONSTR5   159
    X1        CONSTR6   392
    X1        CONSTR7   163
    X1        CONSTR8   952
    X1        CONSTR9   662
    X1        CONSTR10  470
    X2        OBJ       396
    X2        CONSTR1   176
    X2        CONSTR2   61
    X2        CONSTR3   194
    X2        CONSTR4   716
    X2        CONSTR5   361
    X2        CONSTR6   84
    X2        CONSTR7   509
    X2        CONSTR8   117
    X2        CONSTR9   443
    X2        CONSTR10  432
    X3        OBJ       593
    X3        CONSTR1   418
    X3        CONSTR2   448
    X3        CONSTR3   237
    X3        CONSTR4   432
    X3        CONSTR5   163
    X3        CONSTR6   110
    X3        CONSTR7   732
    X3        CONSTR8   310
    X3        CONSTR9   594
    X3        CONSTR10  410
    X4        OBJ       784
    X4        CONSTR1   308
    X4        CONSTR2   660
    X4        CONSTR3   859
    X4        CONSTR4   231
    X4        CONSTR5   231
    X4        CONSTR6   590
    X4        CONSTR7   118
    X4        CONSTR8   731
    X4        CONSTR9   685
    X4        CONSTR10  60
    X5        OBJ       284
    X5        CONSTR1   107
    X5        CONSTR2   122
    X5        CONSTR3   309
    X5        CONSTR4   94
    X5        CONSTR5   461
    X5        CONSTR6   52
    X5        CONSTR7   953
    X5        CONSTR8   394
    X5        CONSTR9   51
    X5        CONSTR10  168
    X6        OBJ       848
    X6        CONSTR1   946
    X6        CONSTR2   523
    X6        CONSTR3   143
    X6        CONSTR4   795
    X6        CONSTR5   374
    X6        CONSTR6   112
    X6        CONSTR7   936
    X6        CONSTR8   562
    X6        CONSTR9   486
    X6        CONSTR10  264
    X7        OBJ       380
    X7        CONSTR1   121
    X7        CONSTR2   583
    X7        CONSTR3   426
    X7        CONSTR4   377
    X7        CONSTR5   331
    X7        CONSTR6   752
    X7        CONSTR7   98
    X7        CONSTR8   249
    X7        CONSTR9   656
    X7        CONSTR10  179
    X8        OBJ       1077
    X8        CONSTR1   669
    X8        CONSTR2   358
    X8        CONSTR3   273
    X8        CONSTR4   572
    X8        CONSTR5   478
    X8        CONSTR6   737
    X8        CONSTR7   862
    X8        CONSTR8   565
    X8        CONSTR9   464
    X8        CONSTR10  859
    X9        OBJ       948
    X9        CONSTR1   431
    X9        CONSTR2   930
    X9        CONSTR3   596
    X9        CONSTR4   813
    X9        CONSTR5   411
    X9        CONSTR6   83
    X9        CONSTR7   977
    X9        CONSTR8   847
    X9        CONSTR9   919
    X9        CONSTR10  80
    X10       OBJ       928
    X10       CONSTR1   276
    X10       CONSTR2   633
    X10       CONSTR3   202
    X10       CONSTR4   190
    X10       CONSTR5   168
    X10       CONSTR6   222
    X10       CONSTR7   795
    X10       CONSTR8   916
    X10       CONSTR9   780
    X10       CONSTR10  263
    X11       OBJ       786
    X11       CONSTR1   690
    X11       CONSTR2   39
    X11       CONSTR3   598
    X11       CONSTR4   234
    X11       CONSTR5   234
    X11       CONSTR6   102
    X11       CONSTR7   708
    X11       CONSTR8   269
    X11       CONSTR9   290
    X11       CONSTR10  396
    X12       OBJ       605
    X12       CONSTR1   18
    X12       CONSTR2   587
    X12       CONSTR3   279
    X12       CONSTR4   708
    X12       CONSTR5   817
    X12       CONSTR6   959
    X12       CONSTR7   64
    X12       CONSTR8   808
    X12       CONSTR9   182
    X12       CONSTR10  186
    X13       OBJ       638
    X13       CONSTR1   115
    X13       CONSTR2   442
    X13       CONSTR3   615
    X13       CONSTR4   904
    X13       CONSTR5   70
    X13       CONSTR6   772
    X13       CONSTR7   418
    X13       CONSTR8   311
    X13       CONSTR9   610
    X13       CONSTR10  414
    X14       OBJ       877
    X14       CONSTR1   978
    X14       CONSTR2   567
    X14       CONSTR3   2
    X14       CONSTR4   395
    X14       CONSTR5   167
    X14       CONSTR6   102
    X14       CONSTR7   675
    X14       CONSTR8   448
    X14       CONSTR9   918
    X14       CONSTR10  550
    X15       OBJ       930
    X15       CONSTR1   217
    X15       CONSTR2   130
    X15       CONSTR3   739
    X15       CONSTR4   666
    X15       CONSTR5   562
    X15       CONSTR6   682
    X15       CONSTR7   151
    X15       CONSTR8   554
    X15       CONSTR9   904
    X15       CONSTR10  77
    X16       OBJ       500
    X16       CONSTR1   70
    X16       CONSTR2   378
    X16       CONSTR3   41
    X16       CONSTR4   71
    X16       CONSTR5   451
    X16       CONSTR6   14
    X16       CONSTR7   1
    X16       CONSTR8   443
    X16       CONSTR9   910
    X16       CONSTR10  925
    X17       OBJ       441
    X17       CONSTR1   479
    X17       CONSTR2   492
    X17       CONSTR3   730
    X17       CONSTR4   330
    X17       CONSTR5   978
    X17       CONSTR6   780
    X17       CONSTR7   50
    X17       CONSTR8   65
    X17       CONSTR9   187
    X17       CONSTR10  12
    X18       OBJ       785
    X18       CONSTR1   347
    X18       CONSTR2   531
    X18       CONSTR3   379
    X18       CONSTR4   979
    X18       CONSTR5   307
    X18       CONSTR6   267
    X18       CONSTR7   140
    X18       CONSTR8   372
    X18       CONSTR9   739
    X18       CONSTR10  719
    X19       OBJ       726
    X19       CONSTR1   461
    X19       CONSTR2   30
    X19       CONSTR3   414
    X19       CONSTR4   982
    X19       CONSTR5   995
    X19       CONSTR6   400
    X19       CONSTR7   59
    X19       CONSTR8   865
    X19       CONSTR9   889
    X19       CONSTR10  715
    X20       OBJ       720
    X20       CONSTR1   101
    X20       CONSTR2   364
    X20       CONSTR3   579
    X20       CONSTR4   132
    X20       CONSTR5   528
    X20       CONSTR6   550
    X20       CONSTR7   752
    X20       CONSTR8   995
    X20       CONSTR9   20
    X20       CONSTR10  794
    X21       OBJ       535
    X21       CONSTR1   524
    X21       CONSTR2   234
    X21       CONSTR3   734
    X21       CONSTR4   333
    X21       CONSTR5   404
    X21       CONSTR6   142
    X21       CONSTR7   325
    X21       CONSTR8   249
    X21       CONSTR9   114
    X21       CONSTR10  510
    X22       OBJ       633
    X22       CONSTR1   353
    X22       CONSTR2   638
    X22       CONSTR3   186
    X22       CONSTR4   938
    X22       CONSTR5   749
    X22       CONSTR6   200
    X22       CONSTR7   553
    X22       CONSTR8   981
    X22       CONSTR9   98
    X22       CONSTR10  27
    X23       OBJ       595
    X23       CONSTR1   556
    X23       CONSTR2   728
    X23       CONSTR3   363
    X23       CONSTR4   351
    X23       CONSTR5   143
    X23       CONSTR6   773
    X23       CONSTR7   38
    X23       CONSTR8   213
    X23       CONSTR9   297
    X23       CONSTR10  319
    X24       OBJ       794
    X24       CONSTR1   390
    X24       CONSTR2   236
    X24       CONSTR3   153
    X24       CONSTR4   925
    X24       CONSTR5   620
    X24       CONSTR6   432
    X24       CONSTR7   128
    X24       CONSTR8   595
    X24       CONSTR9   171
    X24       CONSTR10  106
    X25       OBJ       1007
    X25       CONSTR1   992
    X25       CONSTR2   843
    X25       CONSTR3   411
    X25       CONSTR4   219
    X25       CONSTR5   899
    X25       CONSTR6   189
    X25       CONSTR7   990
    X25       CONSTR8   764
    X25       CONSTR9   210
    X25       CONSTR10  349
    X26       OBJ       681
    X26       CONSTR1   93
    X26       CONSTR2   99
    X26       CONSTR3   690
    X26       CONSTR4   191
    X26       CONSTR5   907
    X26       CONSTR6   869
    X26       CONSTR7   181
    X26       CONSTR8   657
    X26       CONSTR9   17
    X26       CONSTR10  10
    X27       OBJ       715
    X27       CONSTR1   735
    X27       CONSTR2   199
    X27       CONSTR3   335
    X27       CONSTR4   236
    X27       CONSTR5   849
    X27       CONSTR6   751
    X27       CONSTR7   737
    X27       CONSTR8   513
    X27       CONSTR9   349
    X27       CONSTR10  273
    X28       OBJ       872
    X28       CONSTR1   610
    X28       CONSTR2   491
    X28       CONSTR3   966
    X28       CONSTR4   669
    X28       CONSTR5   544
    X28       CONSTR6   590
    X28       CONSTR7   289
    X28       CONSTR8   251
    X28       CONSTR9   243
    X28       CONSTR10  79
    X29       OBJ       649
    X29       CONSTR1   136
    X29       CONSTR2   324
    X29       CONSTR3   304
    X29       CONSTR4   11
    X29       CONSTR5   218
    X29       CONSTR6   874
    X29       CONSTR7   736
    X29       CONSTR8   19
    X29       CONSTR9   792
    X29       CONSTR10  763
    X30       OBJ       842
    X30       CONSTR1   512
    X30       CONSTR2   893
    X30       CONSTR3   218
    X30       CONSTR4   639
    X30       CONSTR5   280
    X30       CONSTR6   876
    X30       CONSTR7   501
    X30       CONSTR8   516
    X30       CONSTR9   465
    X30       CONSTR10  163
    X31       OBJ       685
    X31       CONSTR1   20
    X31       CONSTR2   945
    X31       CONSTR3   103
    X31       CONSTR4   13
    X31       CONSTR5   828
    X31       CONSTR6   563
    X31       CONSTR7   396
    X31       CONSTR8   721
    X31       CONSTR9   956
    X31       CONSTR10  410
    X32       OBJ       455
    X32       CONSTR1   250
    X32       CONSTR2   458
    X32       CONSTR3   281
    X32       CONSTR4   130
    X32       CONSTR5   252
    X32       CONSTR6   950
    X32       CONSTR7   234
    X32       CONSTR8   186
    X32       CONSTR9   779
    X32       CONSTR10  381
    X33       OBJ       920
    X33       CONSTR1   330
    X33       CONSTR2   733
    X33       CONSTR3   396
    X33       CONSTR4   356
    X33       CONSTR5   974
    X33       CONSTR6   958
    X33       CONSTR7   362
    X33       CONSTR8   763
    X33       CONSTR9   628
    X33       CONSTR10  468
    X34       OBJ       553
    X34       CONSTR1   346
    X34       CONSTR2   6
    X34       CONSTR3   243
    X34       CONSTR4   66
    X34       CONSTR5   768
    X34       CONSTR6   286
    X34       CONSTR7   194
    X34       CONSTR8   634
    X34       CONSTR9   213
    X34       CONSTR10  393
    X35       OBJ       668
    X35       CONSTR1   527
    X35       CONSTR2   360
    X35       CONSTR3   411
    X35       CONSTR4   589
    X35       CONSTR5   140
    X35       CONSTR6   544
    X35       CONSTR7   833
    X35       CONSTR8   384
    X35       CONSTR9   341
    X35       CONSTR10  916
    X36       OBJ       867
    X36       CONSTR1   114
    X36       CONSTR2   399
    X36       CONSTR3   206
    X36       CONSTR4   115
    X36       CONSTR5   939
    X36       CONSTR6   982
    X36       CONSTR7   910
    X36       CONSTR8   19
    X36       CONSTR9   781
    X36       CONSTR10  808
    X37       OBJ       905
    X37       CONSTR1   728
    X37       CONSTR2   886
    X37       CONSTR3   770
    X37       CONSTR4   130
    X37       CONSTR5   816
    X37       CONSTR6   967
    X37       CONSTR7   439
    X37       CONSTR8   745
    X37       CONSTR9   682
    X37       CONSTR10  400
    X38       OBJ       812
    X38       CONSTR1   979
    X38       CONSTR2   967
    X38       CONSTR3   522
    X38       CONSTR4   962
    X38       CONSTR5   756
    X38       CONSTR6   820
    X38       CONSTR7   447
    X38       CONSTR8   809
    X38       CONSTR9   286
    X38       CONSTR10  458
    X39       OBJ       493
    X39       CONSTR1   424
    X39       CONSTR2   66
    X39       CONSTR3   618
    X39       CONSTR4   101
    X39       CONSTR5   519
    X39       CONSTR6   663
    X39       CONSTR7   203
    X39       CONSTR8   212
    X39       CONSTR9   448
    X39       CONSTR10  283
    X40       OBJ       708
    X40       CONSTR1   791
    X40       CONSTR2   995
    X40       CONSTR3   2
    X40       CONSTR4   824
    X40       CONSTR5   185
    X40       CONSTR6   599
    X40       CONSTR7   928
    X40       CONSTR8   513
    X40       CONSTR9   52
    X40       CONSTR10  825
    X41       OBJ       451
    X41       CONSTR1   83
    X41       CONSTR2   317
    X41       CONSTR3   22
    X41       CONSTR4   916
    X41       CONSTR5   402
    X41       CONSTR6   451
    X41       CONSTR7   378
    X41       CONSTR8   838
    X41       CONSTR9   495
    X41       CONSTR10  370
    X42       OBJ       886
    X42       CONSTR1   690
    X42       CONSTR2   962
    X42       CONSTR3   498
    X42       CONSTR4   599
    X42       CONSTR5   402
    X42       CONSTR6   383
    X42       CONSTR7   895
    X42       CONSTR8   988
    X42       CONSTR9   913
    X42       CONSTR10  534
    X43       OBJ       637
    X43       CONSTR1   115
    X43       CONSTR2   764
    X43       CONSTR3   421
    X43       CONSTR4   680
    X43       CONSTR5   602
    X43       CONSTR6   559
    X43       CONSTR7   637
    X43       CONSTR8   827
    X43       CONSTR9   207
    X43       CONSTR10  680
    X44       OBJ       817
    X44       CONSTR1   233
    X44       CONSTR2   329
    X44       CONSTR3   916
    X44       CONSTR4   891
    X44       CONSTR5   486
    X44       CONSTR6   226
    X44       CONSTR7   464
    X44       CONSTR8   962
    X44       CONSTR9   222
    X44       CONSTR10  815
    X45       OBJ       644
    X45       CONSTR1   309
    X45       CONSTR2   402
    X45       CONSTR3   787
    X45       CONSTR4   74
    X45       CONSTR5   353
    X45       CONSTR6   94
    X45       CONSTR7   625
    X45       CONSTR8   679
    X45       CONSTR9   675
    X45       CONSTR10  760
    X46       OBJ       589
    X46       CONSTR1   785
    X46       CONSTR2   584
    X46       CONSTR3   663
    X46       CONSTR4   44
    X46       CONSTR5   938
    X46       CONSTR6   118
    X46       CONSTR7   827
    X46       CONSTR8   799
    X46       CONSTR9   75
    X46       CONSTR10  116
    X47       OBJ       594
    X47       CONSTR1   370
    X47       CONSTR2   724
    X47       CONSTR3   347
    X47       CONSTR4   922
    X47       CONSTR5   859
    X47       CONSTR6   114
    X47       CONSTR7   51
    X47       CONSTR8   731
    X47       CONSTR9   416
    X47       CONSTR10  617
    X48       OBJ       809
    X48       CONSTR1   409
    X48       CONSTR2   199
    X48       CONSTR3   739
    X48       CONSTR4   706
    X48       CONSTR5   991
    X48       CONSTR6   35
    X48       CONSTR7   635
    X48       CONSTR8   165
    X48       CONSTR9   353
    X48       CONSTR10  448
    X49       OBJ       975
    X49       CONSTR1   861
    X49       CONSTR2   876
    X49       CONSTR3   928
    X49       CONSTR4   687
    X49       CONSTR5   302
    X49       CONSTR6   651
    X49       CONSTR7   633
    X49       CONSTR8   449
    X49       CONSTR9   771
    X49       CONSTR10  649
    X50       OBJ       810
    X50       CONSTR1   60
    X50       CONSTR2   204
    X50       CONSTR3   554
    X50       CONSTR4   391
    X50       CONSTR5   528
    X50       CONSTR6   843
    X50       CONSTR7   982
    X50       CONSTR8   183
    X50       CONSTR9   449
    X50       CONSTR10  204
    X51       OBJ       917
    X51       CONSTR1   746
    X51       CONSTR2   641
    X51       CONSTR3   544
    X51       CONSTR4   239
    X51       CONSTR5   482
    X51       CONSTR6   922
    X51       CONSTR7   962
    X51       CONSTR8   781
    X51       CONSTR9   265
    X51       CONSTR10  394
    X52       OBJ       795
    X52       CONSTR1   706
    X52       CONSTR2   266
    X52       CONSTR3   908
    X52       CONSTR4   897
    X52       CONSTR5   529
    X52       CONSTR6   455
    X52       CONSTR7   797
    X52       CONSTR8   923
    X52       CONSTR9   639
    X52       CONSTR10  477
    X53       OBJ       961
    X53       CONSTR1   392
    X53       CONSTR2   747
    X53       CONSTR3   149
    X53       CONSTR4   250
    X53       CONSTR5   748
    X53       CONSTR6   108
    X53       CONSTR7   931
    X53       CONSTR8   622
    X53       CONSTR9   468
    X53       CONSTR10  384
    X54       OBJ       929
    X54       CONSTR1   638
    X54       CONSTR2   676
    X54       CONSTR3   344
    X54       CONSTR4   108
    X54       CONSTR5   164
    X54       CONSTR6   493
    X54       CONSTR7   321
    X54       CONSTR8   588
    X54       CONSTR9   674
    X54       CONSTR10  636
    X55       OBJ       605
    X55       CONSTR1   408
    X55       CONSTR2   498
    X55       CONSTR3   868
    X55       CONSTR4   997
    X55       CONSTR5   966
    X55       CONSTR6   185
    X55       CONSTR7   237
    X55       CONSTR8   160
    X55       CONSTR9   658
    X55       CONSTR10  826
    X56       OBJ       915
    X56       CONSTR1   295
    X56       CONSTR2   715
    X56       CONSTR3   208
    X56       CONSTR4   66
    X56       CONSTR5   700
    X56       CONSTR6   702
    X56       CONSTR7   862
    X56       CONSTR8   998
    X56       CONSTR9   409
    X56       CONSTR10  230
    X57       OBJ       878
    X57       CONSTR1   388
    X57       CONSTR2   661
    X57       CONSTR3   953
    X57       CONSTR4   899
    X57       CONSTR5   625
    X57       CONSTR6   50
    X57       CONSTR7   912
    X57       CONSTR8   770
    X57       CONSTR9   951
    X57       CONSTR10  323
    X58       OBJ       655
    X58       CONSTR1   250
    X58       CONSTR2   411
    X58       CONSTR3   705
    X58       CONSTR4   470
    X58       CONSTR5   299
    X58       CONSTR6   971
    X58       CONSTR7   126
    X58       CONSTR8   861
    X58       CONSTR9   713
    X58       CONSTR10  123
    X59       OBJ       719
    X59       CONSTR1   930
    X59       CONSTR2   944
    X59       CONSTR3   564
    X59       CONSTR4   209
    X59       CONSTR5   801
    X59       CONSTR6   514
    X59       CONSTR7   774
    X59       CONSTR8   308
    X59       CONSTR9   737
    X59       CONSTR10  597
    X60       OBJ       1084
    X60       CONSTR1   727
    X60       CONSTR2   547
    X60       CONSTR3   903
    X60       CONSTR4   477
    X60       CONSTR5   673
    X60       CONSTR6   328
    X60       CONSTR7   428
    X60       CONSTR8   932
    X60       CONSTR9   941
    X60       CONSTR10  546
    X61       OBJ       785
    X61       CONSTR1   61
    X61       CONSTR2   36
    X61       CONSTR3   81
    X61       CONSTR4   848
    X61       CONSTR5   421
    X61       CONSTR6   618
    X61       CONSTR7   922
    X61       CONSTR8   324
    X61       CONSTR9   712
    X61       CONSTR10  9
    X62       OBJ       891
    X62       CONSTR1   994
    X62       CONSTR2   640
    X62       CONSTR3   153
    X62       CONSTR4   466
    X62       CONSTR5   931
    X62       CONSTR6   53
    X62       CONSTR7   245
    X62       CONSTR8   562
    X62       CONSTR9   268
    X62       CONSTR10  528
    X63       OBJ       615
    X63       CONSTR1   397
    X63       CONSTR2   429
    X63       CONSTR3   475
    X63       CONSTR4   627
    X63       CONSTR5   603
    X63       CONSTR6   995
    X63       CONSTR7   849
    X63       CONSTR8   357
    X63       CONSTR9   568
    X63       CONSTR10  109
    X64       OBJ       681
    X64       CONSTR1   667
    X64       CONSTR2   344
    X64       CONSTR3   15
    X64       CONSTR4   781
    X64       CONSTR5   844
    X64       CONSTR6   42
    X64       CONSTR7   430
    X64       CONSTR8   34
    X64       CONSTR9   303
    X64       CONSTR10  140
    X65       OBJ       721
    X65       CONSTR1   963
    X65       CONSTR2   958
    X65       CONSTR3   208
    X65       CONSTR4   117
    X65       CONSTR5   484
    X65       CONSTR6   214
    X65       CONSTR7   903
    X65       CONSTR8   997
    X65       CONSTR9   60
    X65       CONSTR10  983
    X66       OBJ       771
    X66       CONSTR1   866
    X66       CONSTR2   996
    X66       CONSTR3   64
    X66       CONSTR4   19
    X66       CONSTR5   226
    X66       CONSTR6   554
    X66       CONSTR7   239
    X66       CONSTR8   616
    X66       CONSTR9   486
    X66       CONSTR10  24
    X67       OBJ       599
    X67       CONSTR1   490
    X67       CONSTR2   546
    X67       CONSTR3   54
    X67       CONSTR4   992
    X67       CONSTR5   360
    X67       CONSTR6   279
    X67       CONSTR7   335
    X67       CONSTR8   956
    X67       CONSTR9   95
    X67       CONSTR10  183
    X68       OBJ       681
    X68       CONSTR1   131
    X68       CONSTR2   372
    X68       CONSTR3   307
    X68       CONSTR4   752
    X68       CONSTR5   463
    X68       CONSTR6   110
    X68       CONSTR7   980
    X68       CONSTR8   817
    X68       CONSTR9   41
    X68       CONSTR10  511
    X69       OBJ       690
    X69       CONSTR1   345
    X69       CONSTR2   211
    X69       CONSTR3   898
    X69       CONSTR4   630
    X69       CONSTR5   619
    X69       CONSTR6   159
    X69       CONSTR7   948
    X69       CONSTR8   11
    X69       CONSTR9   77
    X69       CONSTR10  313
    X70       OBJ       721
    X70       CONSTR1   729
    X70       CONSTR2   494
    X70       CONSTR3   601
    X70       CONSTR4   508
    X70       CONSTR5   299
    X70       CONSTR6   504
    X70       CONSTR7   398
    X70       CONSTR8   503
    X70       CONSTR9   348
    X70       CONSTR10  544
    X71       OBJ       693
    X71       CONSTR1   775
    X71       CONSTR2   658
    X71       CONSTR3   666
    X71       CONSTR4   211
    X71       CONSTR5   560
    X71       CONSTR6   965
    X71       CONSTR7   575
    X71       CONSTR8   60
    X71       CONSTR9   97
    X71       CONSTR10  782
    X72       OBJ       826
    X72       CONSTR1   196
    X72       CONSTR2   202
    X72       CONSTR3   292
    X72       CONSTR4   756
    X72       CONSTR5   308
    X72       CONSTR6   763
    X72       CONSTR7   327
    X72       CONSTR8   545
    X72       CONSTR9   602
    X72       CONSTR10  840
    X73       OBJ       709
    X73       CONSTR1   199
    X73       CONSTR2   980
    X73       CONSTR3   943
    X73       CONSTR4   876
    X73       CONSTR5   405
    X73       CONSTR6   555
    X73       CONSTR7   869
    X73       CONSTR8   490
    X73       CONSTR9   247
    X73       CONSTR10  297
    X74       OBJ       694
    X74       CONSTR1   861
    X74       CONSTR2   367
    X74       CONSTR3   93
    X74       CONSTR4   314
    X74       CONSTR5   53
    X74       CONSTR6   168
    X74       CONSTR7   745
    X74       CONSTR8   194
    X74       CONSTR9   914
    X74       CONSTR10  673
    X75       OBJ       803
    X75       CONSTR1   127
    X75       CONSTR2   407
    X75       CONSTR3   382
    X75       CONSTR4   451
    X75       CONSTR5   425
    X75       CONSTR6   739
    X75       CONSTR7   405
    X75       CONSTR8   721
    X75       CONSTR9   167
    X75       CONSTR10  731
    X76       OBJ       940
    X76       CONSTR1   235
    X76       CONSTR2   760
    X76       CONSTR3   728
    X76       CONSTR4   721
    X76       CONSTR5   344
    X76       CONSTR6   202
    X76       CONSTR7   572
    X76       CONSTR8   944
    X76       CONSTR9   408
    X76       CONSTR10  398
    X77       OBJ       712
    X77       CONSTR1   266
    X77       CONSTR2   920
    X77       CONSTR3   567
    X77       CONSTR4   720
    X77       CONSTR5   498
    X77       CONSTR6   714
    X77       CONSTR7   734
    X77       CONSTR8   751
    X77       CONSTR9   840
    X77       CONSTR10  409
    X78       OBJ       650
    X78       CONSTR1   483
    X78       CONSTR2   644
    X78       CONSTR3   446
    X78       CONSTR4   678
    X78       CONSTR5   260
    X78       CONSTR6   85
    X78       CONSTR7   657
    X78       CONSTR8   123
    X78       CONSTR9   139
    X78       CONSTR10  373
    X79       OBJ       671
    X79       CONSTR1   961
    X79       CONSTR2   744
    X79       CONSTR3   208
    X79       CONSTR4   770
    X79       CONSTR5   255
    X79       CONSTR6   872
    X79       CONSTR7   992
    X79       CONSTR8   137
    X79       CONSTR9   463
    X79       CONSTR10  215
    X80       OBJ       582
    X80       CONSTR1   349
    X80       CONSTR2   163
    X80       CONSTR3   100
    X80       CONSTR4   355
    X80       CONSTR5   400
    X80       CONSTR6   251
    X80       CONSTR7   208
    X80       CONSTR8   64
    X80       CONSTR9   389
    X80       CONSTR10  578
    X81       OBJ       371
    X81       CONSTR1   592
    X81       CONSTR2   37
    X81       CONSTR3   329
    X81       CONSTR4   147
    X81       CONSTR5   164
    X81       CONSTR6   312
    X81       CONSTR7   712
    X81       CONSTR8   44
    X81       CONSTR9   41
    X81       CONSTR10  568
    X82       OBJ       599
    X82       CONSTR1   689
    X82       CONSTR2   94
    X82       CONSTR3   411
    X82       CONSTR4   491
    X82       CONSTR5   492
    X82       CONSTR6   153
    X82       CONSTR7   261
    X82       CONSTR8   149
    X82       CONSTR9   27
    X82       CONSTR10  210
    X83       OBJ       590
    X83       CONSTR1   353
    X83       CONSTR2   119
    X83       CONSTR3   705
    X83       CONSTR4   963
    X83       CONSTR5   391
    X83       CONSTR6   876
    X83       CONSTR7   884
    X83       CONSTR8   223
    X83       CONSTR9   226
    X83       CONSTR10  118
    X84       OBJ       909
    X84       CONSTR1   822
    X84       CONSTR2   94
    X84       CONSTR3   243
    X84       CONSTR4   708
    X84       CONSTR5   917
    X84       CONSTR6   731
    X84       CONSTR7   451
    X84       CONSTR8   404
    X84       CONSTR9   346
    X84       CONSTR10  238
    X85       OBJ       749
    X85       CONSTR1   86
    X85       CONSTR2   456
    X85       CONSTR3   556
    X85       CONSTR4   905
    X85       CONSTR5   881
    X85       CONSTR6   91
    X85       CONSTR7   508
    X85       CONSTR8   562
    X85       CONSTR9   127
    X85       CONSTR10  398
    X86       OBJ       684
    X86       CONSTR1   676
    X86       CONSTR2   379
    X86       CONSTR3   70
    X86       CONSTR4   868
    X86       CONSTR5   345
    X86       CONSTR6   278
    X86       CONSTR7   701
    X86       CONSTR8   366
    X86       CONSTR9   228
    X86       CONSTR10  206
    X87       OBJ       566
    X87       CONSTR1   201
    X87       CONSTR2   812
    X87       CONSTR3   664
    X87       CONSTR4   233
    X87       CONSTR5   303
    X87       CONSTR6   944
    X87       CONSTR7   412
    X87       CONSTR8   292
    X87       CONSTR9   152
    X87       CONSTR10  124
    X88       OBJ       1168
    X88       CONSTR1   942
    X88       CONSTR2   360
    X88       CONSTR3   804
    X88       CONSTR4   419
    X88       CONSTR5   368
    X88       CONSTR6   646
    X88       CONSTR7   892
    X88       CONSTR8   905
    X88       CONSTR9   806
    X88       CONSTR10  543
    X89       OBJ       950
    X89       CONSTR1   933
    X89       CONSTR2   238
    X89       CONSTR3   234
    X89       CONSTR4   553
    X89       CONSTR5   919
    X89       CONSTR6   985
    X89       CONSTR7   81
    X89       CONSTR8   985
    X89       CONSTR9   913
    X89       CONSTR10  47
    X90       OBJ       992
    X90       CONSTR1   416
    X90       CONSTR2   147
    X90       CONSTR3   54
    X90       CONSTR4   987
    X90       CONSTR5   63
    X90       CONSTR6   884
    X90       CONSTR7   368
    X90       CONSTR8   779
    X90       CONSTR9   554
    X90       CONSTR10  749
    X91       OBJ       796
    X91       CONSTR1   21
    X91       CONSTR2   956
    X91       CONSTR3   855
    X91       CONSTR4   464
    X91       CONSTR5   805
    X91       CONSTR6   389
    X91       CONSTR7   437
    X91       CONSTR8   316
    X91       CONSTR9   668
    X91       CONSTR10  268
    X92       OBJ       954
    X92       CONSTR1   570
    X92       CONSTR2   424
    X92       CONSTR3   812
    X92       CONSTR4   871
    X92       CONSTR5   11
    X92       CONSTR6   892
    X92       CONSTR7   655
    X92       CONSTR8   172
    X92       CONSTR9   269
    X92       CONSTR10  682
    X93       OBJ       701
    X93       CONSTR1   392
    X93       CONSTR2   750
    X93       CONSTR3   895
    X93       CONSTR4   301
    X93       CONSTR5   451
    X93       CONSTR6   17
    X93       CONSTR7   102
    X93       CONSTR8   193
    X93       CONSTR9   239
    X93       CONSTR10  210
    X94       OBJ       768
    X94       CONSTR1   731
    X94       CONSTR2   290
    X94       CONSTR3   309
    X94       CONSTR4   440
    X94       CONSTR5   802
    X94       CONSTR6   248
    X94       CONSTR7   646
    X94       CONSTR8   761
    X94       CONSTR9   871
    X94       CONSTR10  314
    X95       OBJ       477
    X95       CONSTR1   705
    X95       CONSTR2   519
    X95       CONSTR3   119
    X95       CONSTR4   764
    X95       CONSTR5   82
    X95       CONSTR6   565
    X95       CONSTR7   515
    X95       CONSTR8   593
    X95       CONSTR9   743
    X95       CONSTR10  84
    X96       OBJ       683
    X96       CONSTR1   968
    X96       CONSTR2   129
    X96       CONSTR3   121
    X96       CONSTR4   810
    X96       CONSTR5   804
    X96       CONSTR6   973
    X96       CONSTR7   833
    X96       CONSTR8   352
    X96       CONSTR9   825
    X96       CONSTR10  656
    X97       OBJ       706
    X97       CONSTR1   823
    X97       CONSTR2   629
    X97       CONSTR3   413
    X97       CONSTR4   106
    X97       CONSTR5   856
    X97       CONSTR6   126
    X97       CONSTR7   383
    X97       CONSTR8   575
    X97       CONSTR9   262
    X97       CONSTR10  463
    X98       OBJ       940
    X98       CONSTR1   984
    X98       CONSTR2   632
    X98       CONSTR3   97
    X98       CONSTR4   344
    X98       CONSTR5   317
    X98       CONSTR6   631
    X98       CONSTR7   341
    X98       CONSTR8   892
    X98       CONSTR9   646
    X98       CONSTR10  52
    X99       OBJ       633
    X99       CONSTR1   675
    X99       CONSTR2   452
    X99       CONSTR3   300
    X99       CONSTR4   611
    X99       CONSTR5   996
    X99       CONSTR6   147
    X99       CONSTR7   100
    X99       CONSTR8   762
    X99       CONSTR9   678
    X99       CONSTR10  730
    X100      OBJ       653
    X100      CONSTR1   377
    X100      CONSTR2   517
    X100      CONSTR3   354
    X100      CONSTR4   389
    X100      CONSTR5   211
    X100      CONSTR6   412
    X100      CONSTR7   64
    X100      CONSTR8   956
    X100      CONSTR9   265
    X100      CONSTR10  737
    INT0001   'MARKER'  'INTEND'
RHS
    RHS10001  CONSTR1   24258
    RHS10001  CONSTR2   24875
    RHS10001  CONSTR3   21839
    RHS10001  CONSTR4   25720
    RHS10001  CONSTR5   25411
    RHS10001  CONSTR6   24067
    RHS10001  CONSTR7   26371
    RHS10001  CONSTR8   26784
    RHS10001  CONSTR9   23226
    RHS10001  CONSTR10  20840
BOUNDS
 BV BND       X1        .00
 BV BND       X2        .00
 BV BND       X3        .00
 BV BND       X4        .00
 BV BND       X5        .00
 BV BND       X6        .00
 BV BND       X7        .00
 BV BND       X8        .00
 BV BND       X9        .00
 BV BND       X10       .00
 BV BND       X11       .00
 BV BND       X12       .00
 BV BND       X13       .00
 BV BND       X14       .00
 BV BND       X15       .00
 BV BND       X16       .00
 BV BND       X17       .00
 BV BND       X18       .00
 BV BND       X19       .00
 BV BND       X20       .00
 BV BND       X21       .00
 BV BND       X22       .00
 BV BND       X23       .00
 BV BND       X24       .00
 BV BND       X25       .00
 BV BND       X26       .00
 BV BND       X27       .00
 BV BND       X28       .00
 BV BND       X29       .00
 BV BND       X30       .00
 BV BND       X31       .00
 BV BND       X32       .00
 BV BND       X33       .00
 BV BND       X34       .00
 BV BND       X35       .00
 BV BND       X36       .00
 BV BND       X37       .00
 BV BND       X38       .00
 BV BND       X39       .00
 BV BND       X40       .00
 BV BND       X41       .00
 BV BND       X42       .00
 BV BND       X43       .00
 BV BND       X44       .00
 BV BND       X45       .00
 BV BND       X46       .00
 BV BND       X47       .00
 BV BND       X48       .00
 BV BND       X49       .00
 BV BND       X50       .00
 BV BND       X51       .00
 BV BND       X52       .00
 BV BND       X53       .00
 BV BND       X54       .00
 BV BND       X55       .00
 BV BND       X56       .00
 BV BND       X57       .00
 BV BND       X58       .00
 BV BND       X59       .00
 BV BND       X60       .00
 BV BND       X61       .00
 BV BND       X62       .00
 BV BND       X63       .00
 BV BND       X64       .00
 BV BND       X65       .00
 BV BND       X66       .00
 BV BND       X67       .00
 BV BND       X68       .00
 BV BND       X69       .00
 BV BND       X70       .00
 BV BND       X71       .00
 BV BND       X72       .00
 BV BND       X73       .00
 BV BND       X74       .00
 BV BND       X75       .00
 BV BND       X76       .00
 BV BND       X77       .00
 BV BND       X78       .00
 BV BND       X79       .00
 BV BND       X80       .00
 BV BND       X81       .00
 BV BND       X82       .00
 BV BND       X83       .00
 BV BND       X84       .00
 BV BND       X85       .00
 BV BND       X86       .00
 BV BND       X87       .00
 BV BND       X88       .00
 BV BND       X89       .00
 BV BND       X90       .00
 BV BND       X91       .00
 BV BND       X92       .00
 BV BND       X93       .00
 BV BND       X94       .00
 BV BND       X95       .00
 BV BND       X96       .00
 BV BND       X97       .00
 BV BND       X98       .00
 BV BND       X99       .00
 BV BND       X100      .00
ENDATA
